p tw 144 26641 2 
1 74 
1 75 
1 77 
1 79 
1 81 
1 83 
1 85 
1 88 
1 89 
1 92 
1 93 
1 95 
1 97 
1 99 
1 102 
1 104 
1 105 
1 107 
1 109 
1 111 
1 113 
1 115 
1 117 
1 120 
1 121 
1 124 
1 125 
1 128 
1 129 
1 131 
1 133 
1 135 
1 138 
1 140 
1 142 
1 143 
2 73 
2 76 
2 78 
2 80 
2 82 
2 84 
2 86 
2 87 
2 90 
2 91 
2 94 
2 96 
2 98 
2 100 
2 101 
2 103 
2 106 
2 108 
2 110 
2 112 
2 114 
2 116 
2 118 
2 119 
2 122 
2 123 
2 126 
2 127 
2 130 
2 132 
2 134 
2 136 
2 137 
2 139 
2 141 
2 144 
3 4 
3 74 
3 75 
3 77 
3 79 
3 82 
3 84 
3 85 
3 87 
3 90 
3 91 
3 93 
3 96 
3 98 
3 99 
3 102 
3 103 
3 105 
3 107 
3 110 
3 112 
3 113 
3 116 
3 118 
3 120 
3 122 
3 123 
3 126 
3 128 
3 129 
3 131 
3 133 
3 136 
3 137 
3 140 
3 142 
3 144 
4 73 
4 76 
4 78 
4 80 
4 81 
4 83 
4 86 
4 88 
4 89 
4 92 
4 94 
4 95 
4 97 
4 100 
4 101 
4 104 
4 106 
4 108 
4 109 
4 111 
4 114 
4 115 
4 117 
4 119 
4 121 
4 124 
4 125 
4 127 
4 130 
4 132 
4 134 
4 135 
4 138 
4 139 
4 141 
4 143 
5 6 
5 74 
5 76 
5 77 
5 79 
5 82 
5 83 
5 86 
5 88 
5 90 
5 92 
5 93 
5 95 
5 98 
5 100 
5 102 
5 104 
5 105 
5 108 
5 110 
5 112 
5 114 
5 116 
5 118 
5 120 
5 122 
5 124 
5 126 
5 128 
5 130 
5 132 
5 134 
5 135 
5 138 
5 139 
5 142 
5 143 
6 73 
6 75 
6 78 
6 80 
6 81 
6 84 
6 85 
6 87 
6 89 
6 91 
6 94 
6 96 
6 97 
6 99 
6 101 
6 103 
6 106 
6 107 
6 109 
6 111 
6 113 
6 115 
6 117 
6 119 
6 121 
6 123 
6 125 
6 127 
6 129 
6 131 
6 133 
6 136 
6 137 
6 140 
6 141 
6 144 
7 8 
7 74 
7 76 
7 78 
7 80 
7 82 
7 84 
7 86 
7 88 
7 90 
7 91 
7 94 
7 96 
7 97 
7 99 
7 102 
7 104 
7 106 
7 108 
7 110 
7 111 
7 113 
7 115 
7 117 
7 120 
7 122 
7 124 
7 125 
7 128 
7 130 
7 131 
7 134 
7 136 
7 138 
7 140 
7 142 
7 144 
8 73 
8 75 
8 77 
8 79 
8 81 
8 83 
8 85 
8 87 
8 89 
8 92 
8 93 
8 95 
8 98 
8 100 
8 101 
8 103 
8 105 
8 107 
8 109 
8 112 
8 114 
8 116 
8 118 
8 119 
8 121 
8 123 
8 126 
8 127 
8 129 
8 132 
8 133 
8 135 
8 137 
8 139 
8 141 
8 143 
9 10 
9 73 
9 75 
9 78 
9 79 
9 82 
9 84 
9 85 
9 87 
9 89 
9 92 
9 93 
9 95 
9 97 
9 99 
9 101 
9 104 
9 106 
9 108 
9 110 
9 111 
9 114 
9 116 
9 118 
9 119 
9 121 
9 123 
9 126 
9 128 
9 130 
9 131 
9 134 
9 136 
9 138 
9 140 
9 142 
9 143 
10 74 
10 76 
10 77 
10 80 
10 81 
10 83 
10 86 
10 88 
10 90 
10 91 
10 94 
10 96 
10 98 
10 100 
10 102 
10 103 
10 105 
10 107 
10 109 
10 112 
10 113 
10 115 
10 117 
10 120 
10 122 
10 124 
10 125 
10 127 
10 129 
10 132 
10 133 
10 135 
10 137 
10 139 
10 141 
10 144 
11 12 
11 74 
11 75 
11 77 
11 80 
11 82 
11 83 
11 85 
11 87 
11 89 
11 91 
11 94 
11 96 
11 98 
11 100 
11 101 
11 104 
11 106 
11 107 
11 109 
11 112 
11 113 
11 115 
11 117 
11 119 
11 122 
11 123 
11 126 
11 128 
11 130 
11 132 
11 134 
11 135 
11 138 
11 140 
11 142 
11 143 
12 73 
12 76 
12 78 
12 79 
12 81 
12 84 
12 86 
12 88 
12 90 
12 92 
12 93 
12 95 
12 97 
12 99 
12 102 
12 103 
12 105 
12 108 
12 110 
12 111 
12 114 
12 116 
12 118 
12 120 
12 121 
12 124 
12 125 
12 127 
12 129 
12 131 
12 133 
12 136 
12 137 
12 139 
12 141 
12 144 
13 14 
13 74 
13 75 
13 78 
13 80 
13 81 
13 84 
13 85 
13 88 
13 89 
13 92 
13 94 
13 96 
13 98 
13 100 
13 102 
13 104 
13 106 
13 108 
13 109 
13 112 
13 114 
13 116 
13 118 
13 120 
13 121 
13 124 
13 126 
13 128 
13 129 
13 132 
13 133 
13 136 
13 138 
13 140 
13 141 
13 144 
14 73 
14 76 
14 77 
14 79 
14 82 
14 83 
14 86 
14 87 
14 90 
14 91 
14 93 
14 95 
14 97 
14 99 
14 101 
14 103 
14 105 
14 107 
14 110 
14 111 
14 113 
14 115 
14 117 
14 119 
14 122 
14 123 
14 125 
14 127 
14 130 
14 131 
14 134 
14 135 
14 137 
14 139 
14 142 
14 143 
15 16 
15 73 
15 75 
15 78 
15 79 
15 81 
15 83 
15 86 
15 87 
15 89 
15 91 
15 94 
15 95 
15 97 
15 99 
15 102 
15 103 
15 105 
15 108 
15 109 
15 112 
15 113 
15 116 
15 117 
15 120 
15 122 
15 124 
15 126 
15 128 
15 130 
15 132 
15 134 
15 136 
15 137 
15 140 
15 141 
15 143 
16 74 
16 76 
16 77 
16 80 
16 82 
16 84 
16 85 
16 88 
16 90 
16 92 
16 93 
16 96 
16 98 
16 100 
16 101 
16 104 
16 106 
16 107 
16 110 
16 111 
16 114 
16 115 
16 118 
16 119 
16 121 
16 123 
16 125 
16 127 
16 129 
16 131 
16 133 
16 135 
16 138 
16 139 
16 142 
16 144 
17 18 
17 74 
17 76 
17 78 
17 79 
17 81 
17 84 
17 86 
17 87 
17 89 
17 91 
17 93 
17 95 
17 98 
17 100 
17 101 
17 104 
17 106 
17 108 
17 110 
17 112 
17 113 
17 115 
17 117 
17 120 
17 121 
17 123 
17 125 
17 128 
17 129 
17 132 
17 133 
17 136 
17 137 
17 139 
17 142 
17 143 
18 73 
18 75 
18 77 
18 80 
18 82 
18 83 
18 85 
18 88 
18 90 
18 92 
18 94 
18 96 
18 97 
18 99 
18 102 
18 103 
18 105 
18 107 
18 109 
18 111 
18 114 
18 116 
18 118 
18 119 
18 122 
18 124 
18 126 
18 127 
18 130 
18 131 
18 134 
18 135 
18 138 
18 140 
18 141 
18 144 
19 20 
19 74 
19 75 
19 78 
19 79 
19 82 
19 83 
19 86 
19 88 
19 90 
19 91 
19 93 
19 96 
19 98 
19 100 
19 101 
19 104 
19 105 
19 108 
19 109 
19 111 
19 113 
19 115 
19 118 
19 119 
19 121 
19 124 
19 126 
19 127 
19 130 
19 131 
19 133 
19 136 
19 137 
19 140 
19 141 
19 143 
20 73 
20 76 
20 77 
20 80 
20 81 
20 84 
20 85 
20 87 
20 89 
20 92 
20 94 
20 95 
20 97 
20 99 
20 102 
20 103 
20 106 
20 107 
20 110 
20 112 
20 114 
20 116 
20 117 
20 120 
20 122 
20 123 
20 125 
20 128 
20 129 
20 132 
20 134 
20 135 
20 138 
20 139 
20 142 
20 144 
21 22 
21 73 
21 76 
21 77 
21 80 
21 82 
21 83 
21 85 
21 88 
21 89 
21 92 
21 93 
21 96 
21 97 
21 100 
21 101 
21 103 
21 105 
21 108 
21 110 
21 112 
21 113 
21 116 
21 117 
21 119 
21 121 
21 124 
21 125 
21 128 
21 130 
21 132 
21 133 
21 136 
21 137 
21 140 
21 142 
21 144 
22 74 
22 75 
22 78 
22 79 
22 81 
22 84 
22 86 
22 87 
22 90 
22 91 
22 94 
22 95 
22 98 
22 99 
22 102 
22 104 
22 106 
22 107 
22 109 
22 111 
22 114 
22 115 
22 118 
22 120 
22 122 
22 123 
22 126 
22 127 
22 129 
22 131 
22 134 
22 135 
22 138 
22 139 
22 141 
22 143 
23 24 
23 74 
23 76 
23 77 
23 80 
23 81 
23 83 
23 86 
23 87 
23 90 
23 91 
23 94 
23 95 
23 97 
23 99 
23 101 
23 104 
23 105 
23 108 
23 110 
23 111 
23 113 
23 116 
23 118 
23 119 
23 121 
23 123 
23 126 
23 128 
23 129 
23 132 
23 133 
23 135 
23 138 
23 140 
23 141 
23 144 
24 73 
24 75 
24 78 
24 79 
24 82 
24 84 
24 85 
24 88 
24 89 
24 92 
24 93 
24 96 
24 98 
24 100 
24 102 
24 103 
24 106 
24 107 
24 109 
24 112 
24 114 
24 115 
24 117 
24 120 
24 122 
24 124 
24 125 
24 127 
24 130 
24 131 
24 134 
24 136 
24 137 
24 139 
24 142 
24 143 
25 26 
25 74 
25 76 
25 78 
25 79 
25 82 
25 83 
25 85 
25 88 
25 89 
25 91 
25 94 
25 96 
25 97 
25 99 
25 101 
25 104 
25 105 
25 108 
25 109 
25 112 
25 114 
25 116 
25 117 
25 120 
25 121 
25 123 
25 126 
25 127 
25 129 
25 131 
25 134 
25 135 
25 137 
25 139 
25 142 
25 144 
26 73 
26 75 
26 77 
26 80 
26 81 
26 84 
26 86 
26 87 
26 90 
26 92 
26 93 
26 95 
26 98 
26 100 
26 102 
26 103 
26 106 
26 107 
26 110 
26 111 
26 113 
26 115 
26 118 
26 119 
26 122 
26 124 
26 125 
26 128 
26 130 
26 132 
26 133 
26 136 
26 138 
26 140 
26 141 
26 143 
27 28 
27 73 
27 76 
27 78 
27 79 
27 82 
27 83 
27 86 
27 87 
27 89 
27 92 
27 93 
27 96 
27 97 
27 100 
27 102 
27 103 
27 106 
27 108 
27 109 
27 111 
27 113 
27 115 
27 118 
27 120 
27 122 
27 123 
27 126 
27 127 
27 129 
27 132 
27 133 
27 135 
27 138 
27 140 
27 142 
27 144 
28 74 
28 75 
28 77 
28 80 
28 81 
28 84 
28 85 
28 88 
28 90 
28 91 
28 94 
28 95 
28 98 
28 99 
28 101 
28 104 
28 105 
28 107 
28 110 
28 112 
28 114 
28 116 
28 117 
28 119 
28 121 
28 124 
28 125 
28 128 
28 130 
28 131 
28 134 
28 136 
28 137 
28 139 
28 141 
28 143 
29 30 
29 74 
29 76 
29 77 
29 80 
29 81 
29 84 
29 86 
29 87 
29 89 
29 91 
29 93 
29 95 
29 97 
29 100 
29 101 
29 103 
29 105 
29 107 
29 109 
29 112 
29 114 
29 115 
29 118 
29 120 
29 121 
29 124 
29 126 
29 127 
29 130 
29 131 
29 134 
29 136 
29 138 
29 140 
29 142 
29 144 
30 73 
30 75 
30 78 
30 79 
30 82 
30 83 
30 85 
30 88 
30 90 
30 92 
30 94 
30 96 
30 98 
30 99 
30 102 
30 104 
30 106 
30 108 
30 110 
30 111 
30 113 
30 116 
30 117 
30 119 
30 122 
30 123 
30 125 
30 128 
30 129 
30 132 
30 133 
30 135 
30 137 
30 139 
30 141 
30 143 
31 32 
31 74 
31 75 
31 77 
31 79 
31 81 
31 84 
31 86 
31 88 
31 89 
31 92 
31 94 
31 95 
31 98 
31 100 
31 101 
31 103 
31 106 
31 108 
31 110 
31 111 
31 113 
31 116 
31 117 
31 119 
31 122 
31 124 
31 126 
31 127 
31 129 
31 131 
31 134 
31 135 
31 137 
31 140 
31 142 
31 144 
32 73 
32 76 
32 78 
32 80 
32 82 
32 83 
32 85 
32 87 
32 90 
32 91 
32 93 
32 96 
32 97 
32 99 
32 102 
32 104 
32 105 
32 107 
32 109 
32 112 
32 114 
32 115 
32 118 
32 120 
32 121 
32 123 
32 125 
32 128 
32 130 
32 132 
32 133 
32 136 
32 138 
32 139 
32 141 
32 143 
33 34 
33 74 
33 75 
33 78 
33 80 
33 81 
33 83 
33 85 
33 88 
33 89 
33 91 
33 93 
33 95 
33 98 
33 99 
33 102 
33 103 
33 105 
33 108 
33 110 
33 111 
33 114 
33 115 
33 117 
33 119 
33 122 
33 123 
33 126 
33 127 
33 130 
33 132 
33 133 
33 136 
33 138 
33 139 
33 142 
33 144 
34 73 
34 76 
34 77 
34 79 
34 82 
34 84 
34 86 
34 87 
34 90 
34 92 
34 94 
34 96 
34 97 
34 100 
34 101 
34 104 
34 106 
34 107 
34 109 
34 112 
34 113 
34 116 
34 118 
34 120 
34 121 
34 124 
34 125 
34 128 
34 129 
34 131 
34 134 
34 135 
34 137 
34 140 
34 141 
34 143 
35 36 
35 73 
35 75 
35 77 
35 80 
35 82 
35 84 
35 86 
35 88 
35 89 
35 91 
35 94 
35 95 
35 97 
35 100 
35 102 
35 104 
35 105 
35 108 
35 109 
35 112 
35 113 
35 116 
35 118 
35 119 
35 122 
35 123 
35 125 
35 127 
35 129 
35 131 
35 133 
35 136 
35 138 
35 139 
35 142 
35 143 
36 74 
36 76 
36 78 
36 79 
36 81 
36 83 
36 85 
36 87 
36 90 
36 92 
36 93 
36 96 
36 98 
36 99 
36 101 
36 103 
36 106 
36 107 
36 110 
36 111 
36 114 
36 115 
36 117 
36 120 
36 121 
36 124 
36 126 
36 128 
36 130 
36 132 
36 134 
36 135 
36 137 
36 140 
36 141 
36 144 
37 38 
37 73 
37 76 
37 78 
37 79 
37 81 
37 83 
37 85 
37 88 
37 90 
37 91 
37 93 
37 95 
37 98 
37 99 
37 101 
37 104 
37 106 
37 107 
37 109 
37 112 
37 113 
37 116 
37 118 
37 119 
37 122 
37 124 
37 125 
37 127 
37 129 
37 132 
37 134 
37 136 
37 138 
37 140 
37 142 
37 144 
38 74 
38 75 
38 77 
38 80 
38 82 
38 84 
38 86 
38 87 
38 89 
38 92 
38 94 
38 96 
38 97 
38 100 
38 102 
38 103 
38 105 
38 108 
38 110 
38 111 
38 114 
38 115 
38 117 
38 120 
38 121 
38 123 
38 126 
38 128 
38 130 
38 131 
38 133 
38 135 
38 137 
38 139 
38 141 
38 143 
39 40 
39 74 
39 76 
39 78 
39 79 
39 81 
39 84 
39 85 
39 87 
39 89 
39 91 
39 94 
39 96 
39 97 
39 100 
39 102 
39 104 
39 105 
39 107 
39 110 
39 111 
39 114 
39 116 
39 118 
39 119 
39 122 
39 124 
39 125 
39 127 
39 130 
39 132 
39 133 
39 135 
39 137 
39 140 
39 142 
39 143 
40 73 
40 75 
40 77 
40 80 
40 82 
40 83 
40 86 
40 88 
40 90 
40 92 
40 93 
40 95 
40 98 
40 99 
40 101 
40 103 
40 106 
40 108 
40 109 
40 112 
40 113 
40 115 
40 117 
40 120 
40 121 
40 123 
40 126 
40 128 
40 129 
40 131 
40 134 
40 136 
40 138 
40 139 
40 141 
40 144 
41 42 
41 73 
41 76 
41 77 
41 80 
41 82 
41 84 
41 85 
41 87 
41 90 
41 92 
41 94 
41 95 
41 98 
41 99 
41 101 
41 104 
41 105 
41 108 
41 109 
41 111 
41 114 
41 115 
41 117 
41 120 
41 122 
41 124 
41 126 
41 127 
41 129 
41 132 
41 133 
41 136 
41 137 
41 140 
41 142 
41 143 
42 74 
42 75 
42 78 
42 79 
42 81 
42 83 
42 86 
42 88 
42 89 
42 91 
42 93 
42 96 
42 97 
42 100 
42 102 
42 103 
42 106 
42 107 
42 110 
42 112 
42 113 
42 116 
42 118 
42 119 
42 121 
42 123 
42 125 
42 128 
42 130 
42 131 
42 134 
42 135 
42 138 
42 139 
42 141 
42 144 
43 44 
43 73 
43 75 
43 77 
43 80 
43 81 
43 83 
43 86 
43 88 
43 90 
43 91 
43 93 
43 96 
43 97 
43 100 
43 102 
43 104 
43 106 
43 107 
43 110 
43 111 
43 114 
43 116 
43 117 
43 120 
43 121 
43 123 
43 126 
43 127 
43 129 
43 132 
43 134 
43 136 
43 137 
43 140 
43 142 
43 143 
44 74 
44 76 
44 78 
44 79 
44 82 
44 84 
44 85 
44 87 
44 89 
44 92 
44 94 
44 95 
44 98 
44 99 
44 101 
44 103 
44 105 
44 108 
44 109 
44 112 
44 113 
44 115 
44 118 
44 119 
44 122 
44 124 
44 125 
44 128 
44 130 
44 131 
44 133 
44 135 
44 138 
44 139 
44 141 
44 144 
45 46 
45 73 
45 75 
45 77 
45 79 
45 81 
45 84 
45 85 
45 88 
45 90 
45 91 
45 94 
45 96 
45 97 
45 99 
45 101 
45 103 
45 106 
45 108 
45 110 
45 112 
45 113 
45 115 
45 118 
45 120 
45 121 
45 124 
45 126 
45 127 
45 130 
45 132 
45 133 
45 135 
45 138 
45 139 
45 142 
45 143 
46 74 
46 76 
46 78 
46 80 
46 82 
46 83 
46 86 
46 87 
46 89 
46 92 
46 93 
46 95 
46 98 
46 100 
46 102 
46 104 
46 105 
46 107 
46 109 
46 111 
46 114 
46 116 
46 117 
46 119 
46 122 
46 123 
46 125 
46 128 
46 129 
46 131 
46 134 
46 136 
46 137 
46 140 
46 141 
46 144 
47 48 
47 73 
47 76 
47 78 
47 80 
47 82 
47 83 
47 86 
47 88 
47 89 
47 91 
47 94 
47 95 
47 98 
47 99 
47 102 
47 103 
47 106 
47 107 
47 110 
47 112 
47 114 
47 115 
47 118 
47 119 
47 121 
47 124 
47 126 
47 128 
47 129 
47 131 
47 133 
47 135 
47 137 
47 140 
47 142 
47 143 
48 74 
48 75 
48 77 
48 79 
48 81 
48 84 
48 85 
48 87 
48 90 
48 92 
48 93 
48 96 
48 97 
48 100 
48 101 
48 104 
48 105 
48 108 
48 109 
48 111 
48 113 
48 116 
48 117 
48 120 
48 122 
48 123 
48 125 
48 127 
48 130 
48 132 
48 134 
48 136 
48 138 
48 139 
48 141 
48 144 
49 50 
49 73 
49 75 
49 78 
49 80 
49 81 
49 83 
49 85 
49 87 
49 90 
49 92 
49 94 
49 95 
49 98 
49 100 
49 102 
49 104 
49 105 
49 108 
49 110 
49 112 
49 113 
49 115 
49 118 
49 120 
49 121 
49 123 
49 125 
49 127 
49 130 
49 131 
49 134 
49 135 
49 137 
49 140 
49 142 
49 144 
50 74 
50 76 
50 77 
50 79 
50 82 
50 84 
50 86 
50 88 
50 89 
50 91 
50 93 
50 96 
50 97 
50 99 
50 101 
50 103 
50 106 
50 107 
50 109 
50 111 
50 114 
50 116 
50 117 
50 119 
50 122 
50 124 
50 126 
50 128 
50 129 
50 132 
50 133 
50 136 
50 138 
50 139 
50 141 
50 143 
51 52 
51 73 
51 75 
51 78 
51 79 
51 82 
51 84 
51 86 
51 88 
51 90 
51 91 
51 94 
51 95 
51 98 
51 100 
51 101 
51 103 
51 105 
51 107 
51 109 
51 111 
51 114 
51 116 
51 117 
51 120 
51 121 
51 123 
51 125 
51 128 
51 130 
51 132 
51 133 
51 135 
51 138 
51 140 
51 142 
51 144 
52 74 
52 76 
52 77 
52 80 
52 81 
52 83 
52 85 
52 87 
52 89 
52 92 
52 93 
52 96 
52 97 
52 99 
52 102 
52 104 
52 106 
52 108 
52 110 
52 112 
52 113 
52 115 
52 118 
52 119 
52 122 
52 124 
52 126 
52 127 
52 129 
52 131 
52 134 
52 136 
52 137 
52 139 
52 141 
52 143 
53 54 
53 73 
53 75 
53 77 
53 80 
53 81 
53 83 
53 86 
53 87 
53 89 
53 91 
53 93 
53 96 
53 98 
53 99 
53 101 
53 104 
53 106 
53 108 
53 109 
53 111 
53 114 
53 116 
53 118 
53 120 
53 122 
53 124 
53 125 
53 128 
53 130 
53 131 
53 133 
53 135 
53 137 
53 139 
53 142 
53 144 
54 74 
54 76 
54 78 
54 79 
54 82 
54 84 
54 85 
54 88 
54 90 
54 92 
54 94 
54 95 
54 97 
54 100 
54 102 
54 103 
54 105 
54 107 
54 110 
54 112 
54 113 
54 115 
54 117 
54 119 
54 121 
54 123 
54 126 
54 127 
54 129 
54 132 
54 134 
54 136 
54 138 
54 140 
54 141 
54 143 
55 56 
55 74 
55 75 
55 78 
55 80 
55 82 
55 83 
55 85 
55 87 
55 90 
55 91 
55 93 
55 95 
55 97 
55 100 
55 101 
55 103 
55 106 
55 108 
55 110 
55 112 
55 114 
55 116 
55 117 
55 120 
55 122 
55 124 
55 125 
55 127 
55 129 
55 131 
55 133 
55 135 
55 138 
55 140 
55 141 
55 143 
56 73 
56 76 
56 77 
56 79 
56 81 
56 84 
56 86 
56 88 
56 89 
56 92 
56 94 
56 96 
56 98 
56 99 
56 102 
56 104 
56 105 
56 107 
56 109 
56 111 
56 113 
56 115 
56 118 
56 119 
56 121 
56 123 
56 126 
56 128 
56 130 
56 132 
56 134 
56 136 
56 137 
56 139 
56 142 
56 144 
57 58 
57 74 
57 75 
57 78 
57 80 
57 81 
57 84 
57 86 
57 88 
57 90 
57 92 
57 93 
57 96 
57 97 
57 99 
57 101 
57 103 
57 105 
57 108 
57 109 
57 112 
57 114 
57 115 
57 118 
57 119 
57 122 
57 123 
57 125 
57 128 
57 129 
57 132 
57 134 
57 135 
57 137 
57 140 
57 142 
57 143 
58 73 
58 76 
58 77 
58 79 
58 82 
58 83 
58 85 
58 87 
58 89 
58 91 
58 94 
58 95 
58 98 
58 100 
58 102 
58 104 
58 106 
58 107 
58 110 
58 111 
58 113 
58 116 
58 117 
58 120 
58 121 
58 124 
58 126 
58 127 
58 130 
58 131 
58 133 
58 136 
58 138 
58 139 
58 141 
58 144 
59 60 
59 73 
59 76 
59 78 
59 80 
59 81 
59 84 
59 85 
59 87 
59 90 
59 91 
59 93 
59 96 
59 98 
59 100 
59 102 
59 103 
59 105 
59 108 
59 109 
59 111 
59 113 
59 116 
59 117 
59 119 
59 121 
59 124 
59 126 
59 128 
59 129 
59 131 
59 134 
59 135 
59 138 
59 139 
59 142 
59 143 
60 74 
60 75 
60 77 
60 79 
60 82 
60 83 
60 86 
60 88 
60 89 
60 92 
60 94 
60 95 
60 97 
60 99 
60 101 
60 104 
60 106 
60 107 
60 110 
60 112 
60 114 
60 115 
60 118 
60 120 
60 122 
60 123 
60 125 
60 127 
60 130 
60 132 
60 133 
60 136 
60 137 
60 140 
60 141 
60 144 
61 62 
61 74 
61 75 
61 77 
61 79 
61 82 
61 83 
61 85 
61 87 
61 90 
61 91 
61 94 
61 95 
61 97 
61 100 
61 102 
61 103 
61 106 
61 108 
61 109 
61 111 
61 114 
61 115 
61 118 
61 119 
61 121 
61 124 
61 125 
61 128 
61 129 
61 132 
61 134 
61 136 
61 137 
61 139 
61 142 
61 144 
62 73 
62 76 
62 78 
62 80 
62 81 
62 84 
62 86 
62 88 
62 89 
62 92 
62 93 
62 96 
62 98 
62 99 
62 101 
62 104 
62 105 
62 107 
62 110 
62 112 
62 113 
62 116 
62 117 
62 120 
62 122 
62 123 
62 126 
62 127 
62 130 
62 131 
62 133 
62 135 
62 138 
62 140 
62 141 
62 143 
63 64 
63 73 
63 75 
63 77 
63 79 
63 82 
63 84 
63 86 
63 87 
63 89 
63 91 
63 93 
63 96 
63 98 
63 99 
63 102 
63 104 
63 105 
63 108 
63 110 
63 112 
63 114 
63 115 
63 117 
63 119 
63 121 
63 124 
63 125 
63 127 
63 129 
63 132 
63 134 
63 135 
63 138 
63 140 
63 141 
63 144 
64 74 
64 76 
64 78 
64 80 
64 81 
64 83 
64 85 
64 88 
64 90 
64 92 
64 94 
64 95 
64 97 
64 100 
64 101 
64 103 
64 106 
64 107 
64 109 
64 111 
64 113 
64 116 
64 118 
64 120 
64 122 
64 123 
64 126 
64 128 
64 130 
64 131 
64 133 
64 136 
64 137 
64 139 
64 142 
64 143 
65 66 
65 74 
65 76 
65 77 
65 80 
65 82 
65 84 
65 85 
65 88 
65 89 
65 91 
65 93 
65 95 
65 98 
65 99 
65 102 
65 103 
65 106 
65 108 
65 109 
65 111 
65 113 
65 116 
65 118 
65 120 
65 121 
65 123 
65 125 
65 127 
65 130 
65 132 
65 134 
65 135 
65 137 
65 140 
65 141 
65 143 
66 73 
66 75 
66 78 
66 79 
66 81 
66 83 
66 86 
66 87 
66 90 
66 92 
66 94 
66 96 
66 97 
66 100 
66 101 
66 104 
66 105 
66 107 
66 110 
66 112 
66 114 
66 115 
66 117 
66 119 
66 122 
66 124 
66 126 
66 128 
66 129 
66 131 
66 133 
66 136 
66 138 
66 139 
66 142 
66 144 
67 68 
67 74 
67 76 
67 77 
67 79 
67 81 
67 83 
67 86 
67 87 
67 90 
67 92 
67 94 
67 96 
67 98 
67 99 
67 102 
67 103 
67 106 
67 108 
67 109 
67 112 
67 114 
67 116 
67 117 
67 119 
67 121 
67 123 
67 125 
67 127 
67 130 
67 131 
67 133 
67 136 
67 138 
67 140 
67 142 
67 143 
68 73 
68 75 
68 78 
68 80 
68 82 
68 84 
68 85 
68 88 
68 89 
68 91 
68 93 
68 95 
68 97 
68 100 
68 101 
68 104 
68 105 
68 107 
68 110 
68 111 
68 113 
68 115 
68 118 
68 120 
68 122 
68 124 
68 126 
68 128 
68 129 
68 132 
68 134 
68 135 
68 137 
68 139 
68 141 
68 144 
69 70 
69 73 
69 76 
69 77 
69 79 
69 81 
69 83 
69 85 
69 88 
69 89 
69 91 
69 94 
69 96 
69 98 
69 100 
69 101 
69 103 
69 105 
69 108 
69 110 
69 111 
69 114 
69 115 
69 118 
69 120 
69 122 
69 123 
69 125 
69 128 
69 129 
69 131 
69 134 
69 136 
69 138 
69 140 
69 141 
69 143 
70 74 
70 75 
70 78 
70 80 
70 82 
70 84 
70 86 
70 87 
70 90 
70 92 
70 93 
70 95 
70 97 
70 99 
70 102 
70 104 
70 106 
70 107 
70 109 
70 112 
70 113 
70 116 
70 117 
70 119 
70 121 
70 124 
70 126 
70 127 
70 130 
70 132 
70 133 
70 135 
70 137 
70 139 
70 142 
70 144 
71 72 
71 73 
71 76 
71 77 
71 79 
71 81 
71 84 
71 85 
71 88 
71 90 
71 91 
71 93 
71 95 
71 97 
71 100 
71 102 
71 104 
71 106 
71 108 
71 109 
71 112 
71 114 
71 115 
71 117 
71 119 
71 122 
71 123 
71 126 
71 128 
71 130 
71 131 
71 133 
71 135 
71 137 
71 140 
71 141 
71 144 
72 74 
72 75 
72 78 
72 80 
72 82 
72 83 
72 86 
72 87 
72 89 
72 92 
72 94 
72 96 
72 98 
72 99 
72 101 
72 103 
72 105 
72 107 
72 110 
72 111 
72 113 
72 116 
72 118 
72 120 
72 121 
72 124 
72 125 
72 127 
72 129 
72 132 
72 134 
72 136 
72 138 
72 139 
72 142 
72 143 
73 74 
75 76 
77 78 
79 80 
81 82 
83 84 
85 86 
87 88 
89 90 
91 92 
93 94 
95 96 
97 98 
99 100 
101 102 
103 104 
105 106 
107 108 
109 110 
111 112 
113 114 
115 116 
117 118 
119 120 
121 122 
123 124 
125 126 
127 128 
129 130 
131 132 
133 134 
135 136 
137 138 
139 140 
141 142 
143 144 
